************************************************************************
file with basedata            : mm27_.bas
initial value random generator: 1731519007
************************************************************************
projects                      :  1
jobs (incl. supersource/sink ):  12
horizon                       :  88
RESOURCES
  - renewable                 :  2   R
  - nonrenewable              :  2   N
  - doubly constrained        :  0   D
************************************************************************
PROJECT INFORMATION:
pronr.  #jobs rel.date duedate tardcost  MPM-Time
    1     10      0       16        1       16
************************************************************************
PRECEDENCE RELATIONS:
jobnr.    #modes  #successors   successors
   0        1          3           1   2   3
   1        3          2           8   9
   2        3          2           8  10
   3        3          3           4   7   8
   4        3          2           5   6
   5        3          1           9
   6        3          1          10
   7        3          1          10
   8        3          1          11
   9        3          1          11
  10        3          1          11
  11        1          0        
************************************************************************
REQUESTS/DURATIONS:
jobnr. mode duration  R 1  R 2  R 3  R 4  E(W 1)
------------------------------------------------------------------------
  0      1     0       0    0    0    0     0
  1      1     1       0    3    0    5     8
  2      1     5       4    0    9    0    65
  3      1     1       0    5    0    9    14
  4      1     8       0    7    3    0    80
  5      1     1       5    0    0    6    11
  6      1     3       0    5    8    0    39
  7      1     7       5    0    7    0    84
  8      1     3       9    0   10    0    57
  9      1     4       3    0    0    8    44
 10      1     4       4    0    0    8    48
 11      1     0       0    0    0    0     0
************************************************************************
RESOURCEAVAILABILITIES:
  R 1
   117
************************************************************************
RESOURCE LIMITS:
jobnr.  l(R 1)  u(R 1)
------------------------------------------------------------------------
  0        0       0
  1        5       8
  2        7      13
  3        8      14
  4        6      10
  5        6      11
  6        7      13
  7        7      12
  8       10      19
  9        6      11
 10        6      12
 11        0       0
************************************************************************
SCENARIOS:
------------------------------------------------------------------------
RESOURCE k = 1
s = 1: (0, 7, 70, 18, 46, 18, 64, 80, 50, 32, 47, 0)
s = 2: (0, 6, 80, 14, 54, 7, 33, 118, 70, 44, 47, 0)
s = 3: (0, 10, 60, 10, 132, 6, 42, 67, 44, 50, 45, 0)
s = 4: (0, 12, 45, 17, 92, 11, 45, 90, 92, 52, 54, 0)
s = 5: (0, 8, 60, 11, 89, 9, 42, 73, 73, 34, 40, 0)
s = 6: (0, 7, 48, 16, 88, 14, 27, 108, 49, 62, 42, 0)
s = 7: (0, 8, 38, 11, 115, 17, 23, 65, 64, 79, 35, 0)
s = 8: (0, 10, 65, 10, 77, 11, 40, 50, 83, 51, 57, 0)
s = 9: (0, 8, 69, 16, 107, 14, 29, 49, 45, 33, 37, 0)
s = 10: (0, 6, 62, 9, 98, 9, 42, 53, 38, 55, 37, 0)
s = 11: (0, 8, 73, 14, 62, 10, 32, 90, 77, 43, 46, 0)
s = 12: (0, 10, 96, 12, 80, 13, 25, 88, 57, 32, 42, 0)
s = 13: (0, 8, 73, 15, 87, 16, 41, 95, 48, 26, 39, 0)
s = 14: (0, 7, 46, 14, 75, 7, 55, 114, 71, 55, 35, 0)
s = 15: (0, 10, 59, 13, 89, 10, 39, 76, 38, 32, 46, 0)
s = 16: (0, 11, 78, 9, 73, 7, 63, 139, 34, 31, 55, 0)
s = 17: (0, 7, 69, 12, 67, 17, 32, 50, 39, 44, 46, 0)
s = 18: (0, 10, 74, 20, 53, 13, 39, 116, 34, 41, 44, 0)
s = 19: (0, 7, 55, 16, 59, 11, 47, 113, 58, 32, 48, 0)
s = 20: (0, 8, 61, 14, 86, 12, 28, 127, 60, 50, 59, 0)
s = 21: (0, 9, 82, 9, 59, 12, 28, 76, 51, 30, 39, 0)
s = 22: (0, 7, 54, 10, 99, 11, 33, 53, 40, 33, 63, 0)
s = 23: (0, 7, 59, 16, 78, 9, 35, 123, 37, 39, 51, 0)
s = 24: (0, 9, 65, 15, 71, 11, 37, 91, 42, 69, 48, 0)
s = 25: (0, 10, 64, 12, 91, 20, 43, 72, 38, 41, 49, 0)
s = 26: (0, 11, 86, 15, 58, 10, 21, 103, 36, 40, 41, 0)
s = 27: (0, 11, 73, 15, 89, 9, 56, 64, 68, 41, 32, 0)
s = 28: (0, 12, 82, 13, 111, 7, 38, 72, 51, 25, 88, 0)
s = 29: (0, 6, 81, 10, 98, 12, 29, 62, 61, 56, 67, 0)
s = 30: (0, 6, 49, 17, 104, 6, 22, 88, 65, 75, 43, 0)
s = 31: (0, 10, 70, 22, 97, 12, 49, 49, 41, 33, 28, 0)
s = 32: (0, 9, 63, 13, 121, 8, 35, 47, 49, 57, 40, 0)
s = 33: (0, 13, 40, 11, 83, 16, 46, 64, 79, 51, 87, 0)
s = 34: (0, 10, 46, 11, 77, 17, 29, 64, 69, 58, 49, 0)
s = 35: (0, 8, 68, 13, 68, 11, 49, 63, 61, 52, 48, 0)
s = 36: (0, 9, 49, 22, 60, 11, 42, 55, 41, 58, 41, 0)
s = 37: (0, 7, 55, 20, 58, 14, 39, 59, 64, 53, 80, 0)
s = 38: (0, 10, 52, 13, 84, 7, 36, 86, 42, 58, 62, 0)
s = 39: (0, 9, 115, 15, 76, 11, 58, 96, 54, 64, 63, 0)
s = 40: (0, 6, 59, 10, 88, 7, 34, 90, 76, 57, 62, 0)
s = 41: (0, 7, 43, 18, 48, 14, 49, 67, 39, 27, 65, 0)
s = 42: (0, 9, 77, 11, 98, 12, 25, 47, 64, 27, 68, 0)
s = 43: (0, 11, 53, 14, 63, 16, 47, 125, 66, 65, 35, 0)
s = 44: (0, 13, 96, 12, 63, 18, 60, 74, 95, 53, 41, 0)
s = 45: (0, 9, 44, 11, 86, 7, 26, 57, 40, 29, 54, 0)
s = 46: (0, 5, 59, 11, 59, 15, 41, 93, 63, 49, 53, 0)
s = 47: (0, 8, 84, 8, 90, 13, 41, 89, 42, 45, 78, 0)
s = 48: (0, 9, 54, 19, 99, 14, 33, 110, 89, 28, 60, 0)
s = 49: (0, 6, 63, 13, 71, 10, 53, 105, 53, 71, 69, 0)
s = 50: (0, 11, 75, 24, 84, 10, 27, 99, 60, 42, 53, 0)
s = 51: (0, 10, 81, 27, 79, 10, 45, 78, 47, 55, 30, 0)
s = 52: (0, 8, 87, 12, 104, 13, 29, 111, 45, 34, 50, 0)
s = 53: (0, 10, 76, 9, 70, 7, 46, 104, 62, 40, 61, 0)
s = 54: (0, 10, 36, 9, 59, 14, 43, 66, 115, 43, 48, 0)
s = 55: (0, 9, 82, 14, 67, 9, 32, 75, 41, 38, 54, 0)
s = 56: (0, 6, 87, 15, 93, 10, 23, 48, 43, 32, 78, 0)
s = 57: (0, 8, 43, 16, 58, 13, 40, 107, 66, 35, 54, 0)
s = 58: (0, 7, 98, 9, 117, 7, 57, 91, 68, 31, 40, 0)
s = 59: (0, 6, 62, 18, 70, 14, 37, 81, 48, 65, 39, 0)
s = 60: (0, 12, 40, 14, 94, 15, 23, 94, 35, 66, 48, 0)
s = 61: (0, 8, 65, 11, 66, 9, 28, 54, 46, 64, 55, 0)
s = 62: (0, 7, 54, 18, 94, 10, 26, 87, 54, 69, 33, 0)
s = 63: (0, 7, 78, 19, 67, 16, 39, 84, 75, 36, 53, 0)
s = 64: (0, 11, 52, 13, 102, 8, 45, 70, 49, 52, 54, 0)
s = 65: (0, 7, 92, 18, 74, 13, 37, 125, 53, 51, 56, 0)
s = 66: (0, 8, 52, 13, 92, 9, 50, 108, 42, 24, 53, 0)
s = 67: (0, 7, 81, 10, 92, 8, 28, 78, 59, 39, 38, 0)
s = 68: (0, 10, 65, 17, 78, 11, 26, 96, 56, 53, 61, 0)
s = 69: (0, 8, 42, 17, 70, 12, 31, 46, 46, 49, 50, 0)
s = 70: (0, 5, 66, 22, 69, 7, 45, 79, 45, 63, 37, 0)
s = 71: (0, 7, 41, 14, 76, 8, 52, 88, 69, 25, 61, 0)
s = 72: (0, 9, 60, 24, 89, 10, 36, 104, 60, 46, 60, 0)
s = 73: (0, 7, 37, 14, 63, 16, 24, 60, 67, 26, 53, 0)
s = 74: (0, 9, 71, 9, 85, 16, 63, 99, 50, 45, 37, 0)
s = 75: (0, 6, 99, 16, 77, 13, 48, 87, 46, 78, 71, 0)
s = 76: (0, 6, 73, 15, 58, 20, 34, 91, 60, 41, 79, 0)
s = 77: (0, 12, 55, 17, 74, 10, 38, 120, 54, 32, 48, 0)
s = 78: (0, 10, 104, 8, 99, 13, 42, 63, 71, 47, 58, 0)
s = 79: (0, 6, 86, 16, 70, 14, 28, 103, 82, 42, 53, 0)
s = 80: (0, 7, 56, 14, 86, 11, 42, 77, 46, 65, 64, 0)
s = 81: (0, 5, 99, 16, 78, 13, 47, 146, 59, 32, 55, 0)
s = 82: (0, 7, 48, 17, 68, 14, 38, 134, 76, 44, 67, 0)
s = 83: (0, 13, 75, 12, 87, 7, 23, 97, 74, 66, 73, 0)
s = 84: (0, 6, 84, 9, 102, 12, 39, 90, 91, 37, 46, 0)
s = 85: (0, 9, 41, 12, 46, 11, 53, 74, 77, 49, 56, 0)
s = 86: (0, 13, 65, 18, 77, 10, 24, 92, 39, 45, 65, 0)
s = 87: (0, 13, 77, 14, 61, 14, 39, 67, 94, 42, 46, 0)
s = 88: (0, 7, 60, 17, 84, 11, 38, 49, 56, 35, 35, 0)
s = 89: (0, 13, 75, 15, 55, 9, 41, 117, 77, 32, 48, 0)
s = 90: (0, 5, 49, 16, 88, 11, 58, 64, 73, 50, 54, 0)
s = 91: (0, 11, 43, 10, 63, 9, 42, 89, 70, 48, 55, 0)
s = 92: (0, 13, 92, 8, 50, 9, 49, 57, 66, 35, 48, 0)
s = 93: (0, 7, 75, 17, 106, 17, 34, 86, 56, 34, 39, 0)
s = 94: (0, 9, 46, 13, 77, 6, 49, 69, 48, 32, 70, 0)
s = 95: (0, 6, 69, 10, 55, 13, 38, 107, 84, 34, 37, 0)
s = 96: (0, 10, 36, 14, 75, 11, 25, 103, 42, 28, 61, 0)
s = 97: (0, 6, 54, 14, 97, 11, 37, 75, 58, 44, 43, 0)
s = 98: (0, 11, 84, 14, 100, 12, 29, 74, 62, 40, 41, 0)
s = 99: (0, 7, 59, 12, 94, 11, 27, 45, 53, 46, 46, 0)
s = 100: (0, 10, 58, 15, 91, 18, 49, 86, 62, 54, 51, 0)
s = 101: (0, 11, 44, 14, 65, 9, 45, 133, 79, 38, 58, 0)
s = 102: (0, 7, 88, 18, 124, 12, 34, 71, 47, 37, 68, 0)
s = 103: (0, 8, 74, 12, 89, 8, 28, 88, 94, 30, 48, 0)
s = 104: (0, 5, 47, 11, 48, 13, 53, 87, 39, 26, 33, 0)
s = 105: (0, 11, 39, 12, 100, 11, 24, 122, 72, 54, 28, 0)
s = 106: (0, 6, 46, 16, 75, 10, 49, 139, 33, 61, 54, 0)
s = 107: (0, 10, 44, 12, 58, 12, 41, 76, 76, 51, 56, 0)
s = 108: (0, 7, 54, 16, 75, 9, 31, 101, 60, 44, 46, 0)
s = 109: (0, 13, 43, 13, 105, 13, 34, 69, 48, 69, 67, 0)
s = 110: (0, 10, 81, 13, 75, 9, 53, 84, 48, 49, 45, 0)
s = 111: (0, 9, 42, 14, 69, 9, 36, 83, 39, 35, 39, 0)
s = 112: (0, 9, 65, 16, 79, 17, 28, 71, 52, 38, 48, 0)
s = 113: (0, 6, 45, 12, 87, 9, 35, 43, 76, 39, 41, 0)
s = 114: (0, 6, 93, 12, 106, 11, 29, 84, 61, 39, 39, 0)
s = 115: (0, 15, 84, 26, 52, 7, 35, 119, 45, 71, 51, 0)
s = 116: (0, 9, 64, 12, 100, 8, 41, 104, 83, 36, 57, 0)
s = 117: (0, 8, 51, 23, 86, 15, 55, 133, 51, 31, 34, 0)
s = 118: (0, 10, 77, 14, 88, 12, 31, 58, 59, 48, 58, 0)
s = 119: (0, 8, 70, 18, 54, 12, 47, 66, 58, 75, 84, 0)
s = 120: (0, 5, 76, 15, 86, 14, 23, 96, 36, 50, 50, 0)
s = 121: (0, 11, 112, 23, 90, 9, 37, 75, 118, 45, 41, 0)
s = 122: (0, 6, 44, 15, 61, 13, 28, 135, 42, 44, 28, 0)
s = 123: (0, 9, 75, 11, 72, 9, 52, 93, 51, 38, 37, 0)
s = 124: (0, 10, 95, 14, 69, 9, 36, 78, 79, 49, 36, 0)
s = 125: (0, 9, 88, 13, 77, 7, 28, 112, 42, 53, 39, 0)
s = 126: (0, 7, 44, 16, 66, 9, 60, 108, 49, 27, 50, 0)
s = 127: (0, 7, 96, 11, 82, 15, 48, 70, 95, 47, 42, 0)
s = 128: (0, 6, 68, 17, 64, 11, 39, 48, 44, 49, 68, 0)
s = 129: (0, 8, 71, 12, 47, 11, 28, 67, 48, 51, 41, 0)
s = 130: (0, 6, 56, 10, 62, 15, 33, 65, 81, 67, 33, 0)
s = 131: (0, 8, 114, 15, 81, 18, 21, 130, 63, 75, 34, 0)
s = 132: (0, 6, 72, 9, 120, 12, 31, 69, 63, 48, 32, 0)
s = 133: (0, 7, 58, 11, 56, 8, 39, 78, 34, 60, 45, 0)
s = 134: (0, 15, 52, 13, 62, 11, 40, 71, 47, 63, 44, 0)
s = 135: (0, 10, 51, 19, 117, 8, 40, 87, 59, 39, 41, 0)
s = 136: (0, 6, 52, 18, 104, 10, 40, 94, 41, 44, 38, 0)
s = 137: (0, 6, 50, 12, 143, 12, 40, 53, 57, 47, 29, 0)
s = 138: (0, 8, 67, 9, 67, 8, 34, 57, 81, 39, 44, 0)
s = 139: (0, 11, 99, 12, 44, 8, 28, 70, 83, 35, 36, 0)
s = 140: (0, 6, 78, 12, 75, 8, 24, 93, 38, 35, 44, 0)
s = 141: (0, 8, 80, 17, 74, 9, 29, 71, 70, 46, 54, 0)
s = 142: (0, 7, 45, 15, 50, 9, 37, 57, 44, 46, 56, 0)
s = 143: (0, 9, 92, 12, 111, 10, 40, 77, 34, 48, 55, 0)
s = 144: (0, 8, 89, 16, 57, 8, 31, 102, 60, 56, 62, 0)
s = 145: (0, 11, 51, 13, 88, 7, 31, 57, 57, 44, 37, 0)
s = 146: (0, 7, 74, 14, 83, 9, 55, 86, 35, 37, 54, 0)
s = 147: (0, 11, 64, 15, 61, 15, 52, 63, 33, 44, 61, 0)
s = 148: (0, 9, 68, 14, 64, 9, 42, 63, 94, 37, 35, 0)
s = 149: (0, 11, 55, 13, 67, 12, 30, 76, 49, 37, 71, 0)
s = 150: (0, 11, 64, 13, 70, 12, 40, 63, 65, 51, 50, 0)
s = 151: (0, 12, 41, 16, 99, 11, 34, 82, 49, 34, 46, 0)
s = 152: (0, 10, 69, 11, 58, 9, 41, 59, 52, 58, 32, 0)
s = 153: (0, 6, 123, 21, 67, 8, 44, 77, 61, 32, 33, 0)
s = 154: (0, 11, 87, 9, 69, 12, 36, 125, 59, 37, 54, 0)
s = 155: (0, 8, 58, 9, 129, 14, 37, 77, 33, 73, 44, 0)
s = 156: (0, 7, 77, 15, 58, 11, 35, 79, 51, 43, 48, 0)
s = 157: (0, 7, 55, 15, 104, 13, 25, 83, 73, 57, 48, 0)
s = 158: (0, 9, 42, 19, 138, 11, 35, 108, 71, 42, 33, 0)
s = 159: (0, 8, 43, 17, 110, 9, 48, 58, 76, 58, 37, 0)
s = 160: (0, 8, 76, 11, 67, 14, 58, 77, 71, 32, 49, 0)
s = 161: (0, 7, 66, 13, 68, 13, 22, 93, 59, 35, 42, 0)
s = 162: (0, 7, 82, 10, 48, 16, 38, 142, 43, 45, 44, 0)
s = 163: (0, 11, 70, 15, 82, 12, 50, 80, 35, 30, 32, 0)
s = 164: (0, 9, 72, 15, 76, 6, 53, 55, 103, 57, 35, 0)
s = 165: (0, 9, 54, 24, 69, 8, 41, 100, 37, 55, 55, 0)
s = 166: (0, 7, 64, 13, 69, 13, 27, 51, 55, 46, 66, 0)
s = 167: (0, 8, 72, 19, 61, 19, 58, 74, 63, 67, 38, 0)
s = 168: (0, 10, 72, 11, 75, 10, 32, 73, 68, 53, 34, 0)
s = 169: (0, 6, 44, 11, 75, 11, 39, 95, 45, 49, 38, 0)
s = 170: (0, 5, 42, 18, 92, 13, 43, 62, 58, 46, 54, 0)
s = 171: (0, 7, 48, 23, 83, 10, 27, 85, 85, 49, 79, 0)
s = 172: (0, 6, 41, 21, 73, 11, 31, 86, 59, 37, 34, 0)
s = 173: (0, 7, 74, 16, 75, 13, 34, 69, 42, 34, 43, 0)
s = 174: (0, 5, 96, 17, 56, 7, 43, 75, 71, 47, 51, 0)
s = 175: (0, 10, 61, 19, 115, 13, 51, 69, 61, 49, 76, 0)
s = 176: (0, 9, 87, 14, 59, 9, 33, 68, 52, 31, 40, 0)
s = 177: (0, 8, 48, 20, 77, 17, 29, 75, 61, 36, 42, 0)
s = 178: (0, 14, 45, 13, 61, 12, 51, 135, 58, 42, 28, 0)
s = 179: (0, 6, 76, 18, 81, 13, 45, 58, 46, 55, 45, 0)
s = 180: (0, 10, 106, 11, 68, 8, 44, 97, 62, 41, 43, 0)
s = 181: (0, 7, 64, 17, 60, 15, 52, 74, 39, 40, 33, 0)
s = 182: (0, 6, 95, 19, 80, 11, 37, 88, 73, 55, 43, 0)
s = 183: (0, 15, 67, 18, 52, 10, 37, 57, 79, 56, 40, 0)
s = 184: (0, 12, 45, 11, 78, 9, 29, 74, 59, 29, 64, 0)
s = 185: (0, 8, 73, 13, 67, 18, 49, 59, 40, 58, 29, 0)
s = 186: (0, 8, 87, 11, 102, 10, 35, 70, 73, 35, 74, 0)
s = 187: (0, 5, 58, 13, 84, 10, 51, 55, 36, 43, 47, 0)
s = 188: (0, 7, 62, 9, 76, 12, 23, 113, 54, 53, 29, 0)
s = 189: (0, 9, 34, 19, 90, 12, 55, 118, 50, 48, 30, 0)
s = 190: (0, 7, 61, 12, 70, 10, 57, 81, 49, 29, 52, 0)
s = 191: (0, 7, 45, 21, 98, 15, 42, 66, 34, 39, 37, 0)
s = 192: (0, 11, 47, 13, 77, 8, 45, 85, 39, 31, 46, 0)
s = 193: (0, 6, 57, 11, 107, 15, 53, 55, 58, 52, 55, 0)
s = 194: (0, 9, 88, 21, 81, 10, 52, 52, 75, 46, 45, 0)
s = 195: (0, 8, 75, 20, 82, 13, 25, 95, 111, 41, 30, 0)
s = 196: (0, 9, 62, 10, 68, 8, 60, 50, 77, 56, 38, 0)
s = 197: (0, 12, 78, 16, 86, 12, 29, 70, 63, 26, 43, 0)
s = 198: (0, 7, 40, 15, 44, 7, 61, 69, 54, 34, 53, 0)
s = 199: (0, 7, 48, 16, 64, 12, 45, 107, 57, 28, 40, 0)
s = 200: (0, 6, 62, 12, 64, 14, 51, 73, 92, 60, 38, 0)
************************************************************************
ES/LS-VALUES:
jobnr.   ES(i)    LS(i)
------------------------------------------------------------------------
  0        0        0
  1        0       78
  2        0       70
  3        0       58
  4        1       60
  5       15       78
  6       15       75
  7        1       67
  8        9       81
  9       16       80
 10       19       80
 11       26       88
************************************************************************
BIG-M-VALUES:
M1 = 24, M2 = 146
************************************************************************
